c ---- [ banner ] ------------------------------------------------------------
c
c KISSAT SAT Solver
c Copyright (c) 2019-2021 Armin Biere JKU Linz
c 
c Version sc2021-sweep 8cf49a4351933e5ee73a5d7132d1c23e0528c13c
c Apple clang version 12.0.0 (clang-1200.0.32.29) -W -Wall -O3 -DNDEBUG
c Sat Jun 5 00:01:02 EDT 2021 Darwin Nings-MBP.home 20.3.0 x86_64
c
c ---- [ parsing ] -----------------------------------------------------------
c
c opened and reading DIMACS file:
c
c   /Users/ningluo/Code/ppsat/py_ppsat/genos2sat/benchmarks/n8/genos.haps.9.cnf
c
c parsed 'p cnf 944 10240' header
c closing input after reading 127050 bytes (124 KB)
c finished parsing after 0.01 seconds
c
c ---- [ solving ] -----------------------------------------------------------
c
c  seconds switched rate      trail    variables
c         MB reductions conflicts glue     remaining
c          level restarts redundant irredundant
c
c *  0.01  0 0 0 0  0 0   0   0 0% 0 7120 815 86%
c {  0.01  0 0 0 0  0 0   0   0 0% 0 7120 815 86%
c i  0.01  0 29 0 0  0 29   1   0 7% 0 7120 814 86%
c i  0.01  0 15 0 0  0 15   2   0 4% 0 7120 809 86%
c i  0.01  0 28 0 0  1 18   6   1 10% 1 7120 808 86%
c i  0.01  0 24 0 0  1 15   7   1 8% 0 7120 803 85%
c i  0.01  0 34 0 0  1 19  11   2 15% 1 7120 802 85%
c i  0.01  0 31 0 0  1 17  12   2 14% 0 7120 797 84%
c i  0.01  0 38 0 0  1 19  15   4 20% 1 7120 796 84%
c i  0.01  0 36 0 0  1 18  16   4 18% 1 7120 791 84%
c i  0.01  0 43 0 0  1 20  20   5 24% 1 7120 790 84%
c i  0.01  0 41 0 0  1 19  21   5 23% 1 7120 785 83%
c i  0.01  0 46 0 0  1 21  24   7 29% 2 7120 784 83%
c i  0.01  0 44 0 0  1 20  25   7 28% 1 7120 779 82%
c i  0.01  0 49 0 0  1 21  29   8 33% 1 7120 778 82%
c i  0.01  0 48 0 0  1 20  30   8 32% 1 7120 773 82%
c i  0.01  0 51 0 0  1 22  34   9 37% 1 7120 772 82%
c i  0.01  0 50 0 0  1 21  35   9 36% 1 7120 767 81%
c }  0.01  0 52 0 0  1 22  38  10 39% 1 7120 767 81%
c 1  0.01  0 52 0 0  1 22  38  10 39% 1 7120 767 81%
c
c ---- [ result ] ------------------------------------------------------------
c
s SATISFIABLE
v 1 2 3 -4 5 6 7 8 9 -10 11 12 13 -14 -15 16 17 -18 -19 20 21 -22 -23 24 -25
v 26 -27 -28 29 30 31 -32 -33 34 35 36 37 38 39 40 41 42 43 44 45 46 47 48 49
v 50 51 52 53 -54 -55 56 57 -58 59 -60 61 62 63 -64 65 66 67 -68 69 70 71 -72
v 73 74 75 76 77 78 79 80 81 -82 83 84 85 86 -87 88 89 -90 91 92 -93 -94 95 96
v 97 98 -99 -100 101 102 103 -104 -105 106 107 108 -109 110 111 -112 113 -114
v 115 116 117 -118 119 120 121 122 123 124 125 -126 127 128 129 130 131 132
v 133 134 135 -136 137 -138 139 140 141 142 143 -144 145 146 147 148 149 -150
v 151 152 153 -154 155 156 157 158 -159 160 161 162 163 164 165 166 167 168
v 169 170 -171 172 173 174 175 -176 -177 178 179 -180 -181 182 183 184 185 186
v 187 188 -189 190 191 192 193 -194 -195 196 197 -198 -199 200 -201 -202 -203
v 204 -205 206 207 -208 -209 210 211 -212 -213 214 215 216 -217 218 219 -220
v 221 222 223 224 225 -226 227 228 229 230 231 232 233 -234 235 236 -237 -238
v -239 240 -241 -242 243 -244 245 -246 -247 -248 -249 250 -251 -252 253 254
v 255 -256 257 258 259 260 261 -262 263 264 265 266 267 268 269 -270 271 272
v 273 274 275 276 277 278 279 280 281 282 283 284 285 286 287 288 -289 -290
v -291 -292 -293 -294 -295 -296 -297 -298 -299 -300 -301 -302 -303 -304 -305
v -306 -307 -308 -309 -310 -311 -312 -313 -314 -315 -316 -317 -318 -319 320
v -321 -322 -323 -324 -325 -326 -327 -328 -329 -330 -331 332 -333 -334 335
v -336 -337 -338 -339 -340 -341 -342 -343 344 -345 -346 -347 -348 -349 350
v -351 -352 -353 -354 -355 -356 -357 -358 -359 -360 -361 -362 -363 -364 365
v -366 -367 -368 -369 -370 -371 -372 -373 -374 -375 -376 -377 -378 379 -380
v -381 -382 -383 -384 -385 -386 -387 -388 -389 -390 -391 -392 -393 394 -395
v -396 -397 -398 -399 -400 -401 -402 -403 -404 -405 -406 -407 -408 409 -410
v -411 -412 -413 -414 -415 -416 -417 -418 -419 -420 -421 -422 423 -424 -425
v -426 -427 -428 -429 -430 -431 -432 -433 -434 -435 -436 -437 438 -439 -440
v -441 -442 -443 -444 -445 -446 -447 -448 -449 -450 -451 -452 453 -454 -455
v -456 -457 -458 -459 -460 -461 -462 -463 -464 -465 -466 -467 468 -469 -470
v -471 -472 -473 -474 -475 -476 -477 -478 -479 -480 -481 -482 483 -484 -485
v -486 -487 -488 -489 -490 -491 -492 -493 -494 -495 -496 -497 498 -499 -500
v -501 -502 -503 -504 -505 -506 -507 -508 -509 -510 -511 -512 513 -514 -515
v -516 -517 -518 -519 -520 -521 -522 -523 -524 -525 -526 -527 -528 -529 -530
v -531 -532 -533 -534 -535 -536 -537 -538 -539 -540 -541 -542 -543 -544 545
v 546 547 548 549 550 551 552 553 554 555 556 557 558 559 -560 -561 562 563
v 564 -565 566 567 568 569 -570 -571 -572 -573 -574 -575 -576 577 578 579 580
v 581 -582 583 584 585 586 587 588 589 590 -591 592 593 594 595 596 597 598
v 599 600 601 602 603 604 605 606 607 608 609 610 611 612 613 614 615 616 617
v 618 619 620 621 622 623 624 625 626 627 628 629 630 631 632 633 634 635 636
v 637 638 639 640 641 642 643 644 645 646 647 648 649 650 651 652 653 654 655
v 656 657 658 659 660 661 662 663 664 665 666 667 668 669 670 671 672 673 674
v 675 676 677 678 679 680 681 682 683 684 685 686 687 688 -689 -690 -691 -692
v -693 -694 -695 -696 -697 -698 -699 -700 -701 -702 -703 -704 -705 -706 -707
v -708 -709 -710 -711 -712 -713 -714 -715 -716 -717 -718 -719 -720 -721 -722
v -723 -724 -725 -726 -727 -728 -729 -730 -731 -732 -733 -734 -735 736 -737
v -738 -739 -740 -741 -742 -743 -744 -745 -746 -747 748 -749 -750 751 752 -753
v -754 -755 -756 -757 -758 -759 760 -761 -762 -763 764 -765 766 767 768 -769
v -770 -771 -772 -773 -774 -775 776 -777 -778 -779 780 781 782 783 784 -785
v -786 -787 -788 -789 -790 -791 792 -793 -794 795 796 797 798 799 800 -801
v -802 -803 -804 -805 -806 -807 808 -809 810 811 812 813 814 815 816 -817 -818
v -819 -820 -821 -822 -823 824 825 826 827 828 829 830 831 832 -833 -834 -835
v -836 -837 -838 839 840 841 842 843 844 845 846 847 848 -849 -850 -851 -852
v -853 854 855 856 857 858 859 860 861 862 863 864 -865 -866 -867 -868 869 870
v 871 872 873 874 875 876 877 878 879 880 -881 -882 -883 884 885 886 887 888
v 889 890 891 892 893 894 895 896 -897 -898 899 900 901 902 903 904 905 906
v 907 908 909 910 911 912 -913 914 915 916 917 918 919 920 921 922 923 924 925
v 926 927 928 929 930 931 932 933 934 935 936 937 938 939 940 941 942 943 944
v 0
c
c ---- [ profiling ] ---------------------------------------------------------
c
c           0.01   86.24 %  parse
c           0.00    6.33 %  search
c           0.00    5.68 %  focused
c           0.00    0.00 %  simplify
c =============================================
c           0.01  100.00 %  total
c
c ---- [ statistics ] --------------------------------------------------------
c
c clauses_learned:                         26               68 %  conflicts
c conflicts:                               38             3885.08 per second
c decisions:                              759               19.97 per conflict
c learned_units:                            8                1 %  variables
c literals_bumped:                        124                4.77 per clause
c literals_deduced:                        52                2.00 per clause
c literals_learned:                        60                2.31 per clause
c literals_minimized:                       0                0 %  deduced
c literals_minimize_shrunken:               0                0 %  shrunken
c literals_shrunken:                        0                0 %  deduced
c propagations:                          4231           432573    per second
c restarts:                                 1               38.00 interval
c sweep_completed:                          0                0    sweeps
c sweep_equivalences:                       0                0    variables
c sweep_sat:                                0                0 %  sweep_solved
c sweep_solved:                             0                0 %  kitten_solved
c sweep_units:                              0                0 %  variables
c sweep_unsat:                              0                0 %  sweep_solved
c sweep_variables:                          0                0 %  variables
c
c ---- [ resources ] ---------------------------------------------------------
c
c maximum-resident-set-size:       1707081728 bytes       1628 MB
c process-time:            85256 bytes (83 KB)               0.01 seconds
c
c ---- [ shutting down ] -----------------------------------------------------
c
c exit 10
